inputs/rsa/s-rsa-5.smt2.cnf
p cnf 278 897
cr 247 248 249 250 251 252 253 254 255 256 257 258 259 260 261 262 263 264 265 266 267 268 269 270 271 272 273 274 275 276 277 278
1 -247 0
-1 247 0
2 -248 0
-2 248 0
3 -249 0
-3 249 0
4 -250 0
-4 250 0
5 -251 0
-5 251 0
6 -252 0
-6 252 0
7 -253 0
-7 253 0
8 -254 0
-8 254 0
9 -255 0
-9 255 0
10 -256 0
-10 256 0
11 -257 0
-11 257 0
12 -258 0
-12 258 0
13 -259 0
-13 259 0
14 -260 0
-14 260 0
15 -261 0
-15 261 0
16 -262 0
-16 262 0
17 -263 0
-17 263 0
18 -264 0
-18 264 0
19 -265 0
-19 265 0
20 -266 0
-20 266 0
21 -267 0
-21 267 0
22 -268 0
-22 268 0
23 -269 0
-23 269 0
24 -270 0
-24 270 0
25 -271 0
-25 271 0
26 -272 0
-26 272 0
27 -273 0
-27 273 0
28 -274 0
-28 274 0
29 -275 0
-29 275 0
30 -276 0
-30 276 0
31 -277 0
-31 277 0
32 -278 0
-32 278 0
-32 0
-5 33 0
-4 33 0
5 4 -33 0
-6 34 0
-33 34 0
6 33 -34 0
-7 35 0
-34 35 0
7 34 -35 0
-8 36 0
-35 36 0
8 35 -36 0
-9 37 0
-36 37 0
9 36 -37 0
-10 38 0
-37 38 0
10 37 -38 0
-11 39 0
-38 39 0
11 38 -39 0
-12 40 0
-39 40 0
12 39 -40 0
-13 41 0
-40 41 0
13 40 -41 0
-14 42 0
-41 42 0
14 41 -42 0
-15 43 0
-42 43 0
15 42 -43 0
-16 44 0
-43 44 0
16 43 -44 0
-17 45 0
-44 45 0
17 44 -45 0
-18 46 0
-45 46 0
18 45 -46 0
-19 47 0
-46 47 0
19 46 -47 0
-20 48 0
-47 48 0
20 47 -48 0
-21 49 0
-48 49 0
21 48 -49 0
-22 50 0
-49 50 0
22 49 -50 0
-23 51 0
-50 51 0
23 50 -51 0
-24 52 0
-51 52 0
24 51 -52 0
-25 53 0
-52 53 0
25 52 -53 0
-26 54 0
-53 54 0
26 53 -54 0
-27 55 0
-54 55 0
27 54 -55 0
-28 56 0
-55 56 0
28 55 -56 0
-29 57 0
-56 57 0
29 56 -57 0
-30 58 0
-57 58 0
30 57 -58 0
-31 59 0
-58 59 0
31 58 -59 0
-31 60 0
-58 60 0
31 58 -60 0
32 -60 0
32 61 0
-1 61 0
-32 1 -61 0
1 62 0
-1 61 62 0
-1 -61 -62 0
62 0
-63 2 1 0
-63 -2 -1 0
63 -2 1 0
63 2 -1 0
-32 63 -64 0
32 2 -64 0
-32 -63 64 0
32 -2 64 0
63 2 -64 0
-63 -2 64 0
-2 65 0
-1 65 0
2 1 -65 0
-66 3 65 0
-66 -3 -65 0
66 -3 65 0
66 3 -65 0
-32 66 -67 0
32 3 -67 0
-32 -66 67 0
32 -3 67 0
66 3 -67 0
-66 -3 67 0
-67 68 0
-64 68 0
67 64 -68 0
-3 69 0
-65 69 0
3 65 -69 0
-70 4 69 0
-70 -4 -69 0
70 -4 69 0
70 4 -69 0
-32 70 -71 0
32 4 -71 0
-32 -70 71 0
32 -4 71 0
70 4 -71 0
-70 -4 71 0
-71 72 0
-68 72 0
71 68 -72 0
-4 73 0
-69 73 0
4 69 -73 0
-74 5 73 0
-74 -5 -73 0
74 -5 73 0
74 5 -73 0
-32 74 -75 0
32 5 -75 0
-32 -74 75 0
32 -5 75 0
74 5 -75 0
-74 -5 75 0
-75 76 0
-72 76 0
75 72 -76 0
-5 77 0
-73 77 0
5 73 -77 0
-78 6 77 0
-78 -6 -77 0
78 -6 77 0
78 6 -77 0
-32 78 -79 0
32 6 -79 0
-32 -78 79 0
32 -6 79 0
78 6 -79 0
-78 -6 79 0
-79 80 0
-76 80 0
79 76 -80 0
-6 81 0
-77 81 0
6 77 -81 0
-82 7 81 0
-82 -7 -81 0
82 -7 81 0
82 7 -81 0
-32 82 -83 0
32 7 -83 0
-32 -82 83 0
32 -7 83 0
82 7 -83 0
-82 -7 83 0
-83 84 0
-80 84 0
83 80 -84 0
-7 85 0
-81 85 0
7 81 -85 0
-86 8 85 0
-86 -8 -85 0
86 -8 85 0
86 8 -85 0
-32 86 -87 0
32 8 -87 0
-32 -86 87 0
32 -8 87 0
86 8 -87 0
-86 -8 87 0
-87 88 0
-84 88 0
87 84 -88 0
-8 89 0
-85 89 0
8 85 -89 0
-90 9 89 0
-90 -9 -89 0
90 -9 89 0
90 9 -89 0
-32 90 -91 0
32 9 -91 0
-32 -90 91 0
32 -9 91 0
90 9 -91 0
-90 -9 91 0
-91 92 0
-88 92 0
91 88 -92 0
-9 93 0
-89 93 0
9 89 -93 0
-94 10 93 0
-94 -10 -93 0
94 -10 93 0
94 10 -93 0
-32 94 -95 0
32 10 -95 0
-32 -94 95 0
32 -10 95 0
94 10 -95 0
-94 -10 95 0
-95 96 0
-92 96 0
95 92 -96 0
-10 97 0
-93 97 0
10 93 -97 0
-98 11 97 0
-98 -11 -97 0
98 -11 97 0
98 11 -97 0
-32 98 -99 0
32 11 -99 0
-32 -98 99 0
32 -11 99 0
98 11 -99 0
-98 -11 99 0
-99 100 0
-96 100 0
99 96 -100 0
-11 101 0
-97 101 0
11 97 -101 0
-102 12 101 0
-102 -12 -101 0
102 -12 101 0
102 12 -101 0
-32 102 -103 0
32 12 -103 0
-32 -102 103 0
32 -12 103 0
102 12 -103 0
-102 -12 103 0
-103 104 0
-100 104 0
103 100 -104 0
-12 105 0
-101 105 0
12 101 -105 0
-106 13 105 0
-106 -13 -105 0
106 -13 105 0
106 13 -105 0
-32 106 -107 0
32 13 -107 0
-32 -106 107 0
32 -13 107 0
106 13 -107 0
-106 -13 107 0
-107 108 0
-104 108 0
107 104 -108 0
-13 109 0
-105 109 0
13 105 -109 0
-110 14 109 0
-110 -14 -109 0
110 -14 109 0
110 14 -109 0
-32 110 -111 0
32 14 -111 0
-32 -110 111 0
32 -14 111 0
110 14 -111 0
-110 -14 111 0
-111 112 0
-108 112 0
111 108 -112 0
-14 113 0
-109 113 0
14 109 -113 0
-114 15 113 0
-114 -15 -113 0
114 -15 113 0
114 15 -113 0
-32 114 -115 0
32 15 -115 0
-32 -114 115 0
32 -15 115 0
114 15 -115 0
-114 -15 115 0
-115 116 0
-112 116 0
115 112 -116 0
-15 117 0
-113 117 0
15 113 -117 0
-118 16 117 0
-118 -16 -117 0
118 -16 117 0
118 16 -117 0
-32 118 -119 0
32 16 -119 0
-32 -118 119 0
32 -16 119 0
118 16 -119 0
-118 -16 119 0
-119 120 0
-116 120 0
119 116 -120 0
-16 121 0
-117 121 0
16 117 -121 0
-122 17 121 0
-122 -17 -121 0
122 -17 121 0
122 17 -121 0
-32 122 -123 0
32 17 -123 0
-32 -122 123 0
32 -17 123 0
122 17 -123 0
-122 -17 123 0
-123 124 0
-120 124 0
123 120 -124 0
-17 125 0
-121 125 0
17 121 -125 0
-126 18 125 0
-126 -18 -125 0
126 -18 125 0
126 18 -125 0
-32 126 -127 0
32 18 -127 0
-32 -126 127 0
32 -18 127 0
126 18 -127 0
-126 -18 127 0
-127 128 0
-124 128 0
127 124 -128 0
-18 129 0
-125 129 0
18 125 -129 0
-130 19 129 0
-130 -19 -129 0
130 -19 129 0
130 19 -129 0
-32 130 -131 0
32 19 -131 0
-32 -130 131 0
32 -19 131 0
130 19 -131 0
-130 -19 131 0
-131 132 0
-128 132 0
131 128 -132 0
-19 133 0
-129 133 0
19 129 -133 0
-134 20 133 0
-134 -20 -133 0
134 -20 133 0
134 20 -133 0
-32 134 -135 0
32 20 -135 0
-32 -134 135 0
32 -20 135 0
134 20 -135 0
-134 -20 135 0
-135 136 0
-132 136 0
135 132 -136 0
-20 137 0
-133 137 0
20 133 -137 0
-138 21 137 0
-138 -21 -137 0
138 -21 137 0
138 21 -137 0
-32 138 -139 0
32 21 -139 0
-32 -138 139 0
32 -21 139 0
138 21 -139 0
-138 -21 139 0
-139 140 0
-136 140 0
139 136 -140 0
-21 141 0
-137 141 0
21 137 -141 0
-142 22 141 0
-142 -22 -141 0
142 -22 141 0
142 22 -141 0
-32 142 -143 0
32 22 -143 0
-32 -142 143 0
32 -22 143 0
142 22 -143 0
-142 -22 143 0
-143 144 0
-140 144 0
143 140 -144 0
-22 145 0
-141 145 0
22 141 -145 0
-146 23 145 0
-146 -23 -145 0
146 -23 145 0
146 23 -145 0
-32 146 -147 0
32 23 -147 0
-32 -146 147 0
32 -23 147 0
146 23 -147 0
-146 -23 147 0
-147 148 0
-144 148 0
147 144 -148 0
-23 149 0
-145 149 0
23 145 -149 0
-150 24 149 0
-150 -24 -149 0
150 -24 149 0
150 24 -149 0
-32 150 -151 0
32 24 -151 0
-32 -150 151 0
32 -24 151 0
150 24 -151 0
-150 -24 151 0
-151 152 0
-148 152 0
151 148 -152 0
-24 153 0
-149 153 0
24 149 -153 0
-154 25 153 0
-154 -25 -153 0
154 -25 153 0
154 25 -153 0
-32 154 -155 0
32 25 -155 0
-32 -154 155 0
32 -25 155 0
154 25 -155 0
-154 -25 155 0
-155 156 0
-152 156 0
155 152 -156 0
-25 157 0
-153 157 0
25 153 -157 0
-158 26 157 0
-158 -26 -157 0
158 -26 157 0
158 26 -157 0
-32 158 -159 0
32 26 -159 0
-32 -158 159 0
32 -26 159 0
158 26 -159 0
-158 -26 159 0
-159 160 0
-156 160 0
159 156 -160 0
-26 161 0
-157 161 0
26 157 -161 0
-162 27 161 0
-162 -27 -161 0
162 -27 161 0
162 27 -161 0
-32 162 -163 0
32 27 -163 0
-32 -162 163 0
32 -27 163 0
162 27 -163 0
-162 -27 163 0
-163 164 0
-160 164 0
163 160 -164 0
-27 165 0
-161 165 0
27 161 -165 0
-166 28 165 0
-166 -28 -165 0
166 -28 165 0
166 28 -165 0
-32 166 -167 0
32 28 -167 0
-32 -166 167 0
32 -28 167 0
166 28 -167 0
-166 -28 167 0
-167 168 0
-164 168 0
167 164 -168 0
-28 169 0
-165 169 0
28 165 -169 0
-170 29 169 0
-170 -29 -169 0
170 -29 169 0
170 29 -169 0
-32 170 -171 0
32 29 -171 0
-32 -170 171 0
32 -29 171 0
170 29 -171 0
-170 -29 171 0
-171 172 0
-168 172 0
171 168 -172 0
-29 173 0
-169 173 0
29 169 -173 0
-174 30 173 0
-174 -30 -173 0
174 -30 173 0
174 30 -173 0
-32 174 -175 0
32 30 -175 0
-32 -174 175 0
32 -30 175 0
174 30 -175 0
-174 -30 175 0
-175 176 0
-172 176 0
175 172 -176 0
-30 177 0
-173 177 0
30 173 -177 0
-178 31 177 0
-178 -31 -177 0
178 -31 177 0
178 31 -177 0
-32 178 -179 0
32 31 -179 0
-32 -178 179 0
32 -31 179 0
178 31 -179 0
-178 -31 179 0
-179 180 0
-176 180 0
179 176 -180 0
-31 181 0
-177 181 0
31 177 -181 0
-182 32 -181 0
-182 -32 181 0
182 -32 -181 0
182 32 181 0
32 183 0
-182 183 0
-32 182 -183 0
32 184 0
-183 180 184 0
-32 183 -184 0
-32 -180 -184 0
-184 185 0
-64 185 0
184 64 -185 0
-32 63 -186 0
32 2 -186 0
-32 -63 186 0
32 -2 186 0
63 2 -186 0
-63 -2 186 0
-32 63 -187 0
32 2 -187 0
-32 -63 187 0
32 -2 187 0
63 2 -187 0
-63 -2 187 0
187 188 0
-187 185 188 0
-187 -185 -188 0
188 0
-2 189 0
-1 189 0
-2 -1 189 0
2 1 -189 0
-2 190 0
-1 190 0
-2 -1 190 0
2 1 -190 0
-3 191 0
-190 191 0
-3 -190 191 0
3 190 -191 0
-3 192 0
-190 192 0
-3 -190 192 0
3 190 -192 0
-4 193 0
-192 193 0
-4 -192 193 0
4 192 -193 0
-4 194 0
-192 194 0
-4 -192 194 0
4 192 -194 0
-5 195 0
-194 195 0
-5 -194 195 0
5 194 -195 0
-5 196 0
-194 196 0
-5 -194 196 0
5 194 -196 0
-6 197 0
-196 197 0
-6 -196 197 0
6 196 -197 0
-6 198 0
-196 198 0
-6 -196 198 0
6 196 -198 0
-7 199 0
-198 199 0
-7 -198 199 0
7 198 -199 0
-7 200 0
-198 200 0
-7 -198 200 0
7 198 -200 0
-8 201 0
-200 201 0
-8 -200 201 0
8 200 -201 0
-8 202 0
-200 202 0
-8 -200 202 0
8 200 -202 0
-9 203 0
-202 203 0
-9 -202 203 0
9 202 -203 0
-9 204 0
-202 204 0
-9 -202 204 0
9 202 -204 0
-10 205 0
-204 205 0
-10 -204 205 0
10 204 -205 0
-10 206 0
-204 206 0
-10 -204 206 0
10 204 -206 0
-11 207 0
-206 207 0
-11 -206 207 0
11 206 -207 0
-11 208 0
-206 208 0
-11 -206 208 0
11 206 -208 0
-12 209 0
-208 209 0
-12 -208 209 0
12 208 -209 0
-12 210 0
-208 210 0
-12 -208 210 0
12 208 -210 0
-13 211 0
-210 211 0
-13 -210 211 0
13 210 -211 0
-13 212 0
-210 212 0
-13 -210 212 0
13 210 -212 0
-14 213 0
-212 213 0
-14 -212 213 0
14 212 -213 0
-14 214 0
-212 214 0
-14 -212 214 0
14 212 -214 0
-15 215 0
-214 215 0
-15 -214 215 0
15 214 -215 0
-15 216 0
-214 216 0
-15 -214 216 0
15 214 -216 0
-16 217 0
-216 217 0
-16 -216 217 0
16 216 -217 0
-16 218 0
-216 218 0
-16 -216 218 0
16 216 -218 0
-17 219 0
-218 219 0
-17 -218 219 0
17 218 -219 0
-17 220 0
-218 220 0
-17 -218 220 0
17 218 -220 0
-18 221 0
-220 221 0
-18 -220 221 0
18 220 -221 0
-18 222 0
-220 222 0
-18 -220 222 0
18 220 -222 0
-19 223 0
-222 223 0
-19 -222 223 0
19 222 -223 0
-19 224 0
-222 224 0
-19 -222 224 0
19 222 -224 0
-20 225 0
-224 225 0
-20 -224 225 0
20 224 -225 0
-20 226 0
-224 226 0
-20 -224 226 0
20 224 -226 0
-21 227 0
-226 227 0
-21 -226 227 0
21 226 -227 0
-21 228 0
-226 228 0
-21 -226 228 0
21 226 -228 0
-22 229 0
-228 229 0
-22 -228 229 0
22 228 -229 0
-22 230 0
-228 230 0
-22 -228 230 0
22 228 -230 0
-23 231 0
-230 231 0
-23 -230 231 0
23 230 -231 0
-23 232 0
-230 232 0
-23 -230 232 0
23 230 -232 0
-24 233 0
-232 233 0
-24 -232 233 0
24 232 -233 0
-24 234 0
-232 234 0
-24 -232 234 0
24 232 -234 0
-25 235 0
-234 235 0
-25 -234 235 0
25 234 -235 0
-25 236 0
-234 236 0
-25 -234 236 0
25 234 -236 0
-26 237 0
-236 237 0
-26 -236 237 0
26 236 -237 0
-26 238 0
-236 238 0
-26 -236 238 0
26 236 -238 0
-27 239 0
-238 239 0
-27 -238 239 0
27 238 -239 0
-27 240 0
-238 240 0
-27 -238 240 0
27 238 -240 0
-28 241 0
-240 241 0
-28 -240 241 0
28 240 -241 0
-28 242 0
-240 242 0
-28 -240 242 0
28 240 -242 0
-29 243 0
-242 243 0
-29 -242 243 0
29 242 -243 0
-29 244 0
-242 244 0
-29 -242 244 0
29 242 -244 0
-30 245 0
-244 245 0
-30 -244 245 0
30 244 -245 0
-30 246 0
-244 246 0
-30 -244 246 0
30 244 -246 0
31 246 0
